4 5 1.0 0 0 0 0 4105 4105
0 0 0 1 1
0 0 5 -1 1 3 13 -1 1 4 18 -1 1 1 13 -1 1 5 9 -1 1 2 12 
0 0 5 -1 1 3 16 -1 1 2 10 -1 1 1 19 -1 1 4 7 -1 1 5 7 
0 0 5 -1 1 3 9 -1 1 4 7 -1 1 5 8 -1 1 1 14 -1 1 2 14 
0 0 5 -1 1 4 12 -1 1 1 9 -1 1 3 16 -1 1 2 15 -1 1 5 14 
